Instance name:    bar-n100-2
Authors:          PDPTW Solver
Date:             2025-11-20
Reference:        LNS with SA/RTR
Solution
Route 1 : 34 84 15 65 40 90 30 80 33 83 1 51 11 61 10 8 58 60 41 91 14 64
Route 2 : 32 26 76 82 42 92 17 67 45 95 9 59 16 66 21 71 48 98 47 97 4 54
Route 3 : 39 89 20 70 28 78 49 99 35 85 24 74 46 96
Route 4 : 12 62 13 63 19 69 50 31 81 6 56 44 94 27 77 100 25 3 53 75 22 72
Route 5 : 43 37 93 29 87 79 18 68 36 86 5 23 73 55 2 52 7 38 88 57
